121597
0,9,28,63,13,69,61,75,66,19,65,25,35,70,79,44,45,53,72,12,17,36,20,4,18,23,30,47,21,43,67,74,39,10,15,32,6,26,37,1,29,34,27,78,5,60,7,82,52,58,81,31,73,57,8,76,16,55,50,71,80,46,59,33,48,2,11,42,56,22,54,24,41,14,68,77,51,40,38,62,3,49,64
